; sanic :: corpus-study/repo_src/sanic/sanic/server/websockets/frame.py :: EVENT 'WebsocketFrameAssembler.message_fetched' :: naive encoding (verdict: sat)
; Generated by snf-pipeline (encoder.py) -- run with any
; SMT-LIB2-compliant solver, e.g. `z3 sanic__corpus-study_repo_src_sanic_sanic_server_websockets_frame.py__WebsocketFrameAssembler.message_fetched__naive.smt2`
; benchmark generated from python API
(set-info :status unknown)
(declare-fun ewake2_0 () Bool)
(assert
 (let (($x43 (not ewake2_0)))
(or $x43)))
(check-sat)
